#######################################
### Exact MIP solver for the HHCRSP ###
#######################################
-- Instance file: new-instances/HHCRSP_50_10_30_1.2_R_C.txt
-- Max threads: 4
-- Time limit: 999999 seconds
-- Use initial solution: No
Trivial flow violations prevented generating 6014 variables.
Model exported.
Version identifier: 20.1.0.0 | 2020-11-10 | 9bedb6d68
CPXPARAM_Threads                                 4
CPXPARAM_TimeLimit                               999999
Parallel mode: deterministic, using up to 4 threads for concurrent optimization:
 * Starting dual Simplex on 1 thread...
 * Starting Barrier on 3 threads...
Tried aggregator 1 time.
LP Presolve eliminated 1362 rows and 365 columns.
Reduced LP has 6776 rows, 6572 columns, and 55585 nonzeros.
Presolve time = 0.03 sec. (16.33 ticks)
Symmetry aggregator did 3027 additional substitutions.

Iteration log . . .
Iteration:     1   Dual objective     =             0.000000
Iteration:   243   Dual objective     =            83.333333

Dual crossover.
  Dual:  Fixing 84 variables.
       83 DMoves:  Infeasibility  2.22600240e-14  Objective  8.33402067e+01
        0 DMoves:  Infeasibility  9.93652933e-15  Objective  8.33402067e+01
  Dual:  Pushed 3, exchanged 81.
  Primal:  Fixing 17 variables.
       16 PMoves:  Infeasibility  0.00000000e+00  Objective  8.33402067e+01
        0 PMoves:  Infeasibility  0.00000000e+00  Objective  8.33402067e+01
  Primal:  Pushed 2, exchanged 15.

Dual simplex solved model.


Solution status from MIP model:
-- Processing time: 0.056 sec.
-- Memory used: 72.874 MB
-- Best bound: inf
-- Obj value: 83.3402
-- Gap: inf%
-- Total distance: 250.021
-- Total tardiness: 0
-- Largest tardiness: 0
